\ENCODING=ISO-8859-1
\Problem name: IloCplex

Maximize
 obj:
Subject To
 c1:  19 x(1)(0)#0 + 30 x(2)(0)#1 + 16 x(3)(0)#2 + 23 x(4)(0)#3 + 11 x(5)(0)#4
      + 31 x(6)(0)#5 + 15 x(7)(0)#6 + 28 x(8)(0)#7 + 8 x(9)(0)#8 + 8 x(10)(0)#9
      + 7 x(11)(0)#10 + 14 x(12)(0)#11 + 6 x(13)(0)#12 + 19 x(14)(0)#13
      + 11 x(15)(0)#14 <= 35
 c2:  19 x(1)(1)#15 + 30 x(2)(1)#16 + 16 x(3)(1)#17 + 23 x(4)(1)#18
      + 11 x(5)(1)#19 + 31 x(6)(1)#20 + 15 x(7)(1)#21 + 28 x(8)(1)#22
      + 8 x(9)(1)#23 + 8 x(10)(1)#24 + 7 x(11)(1)#25 + 14 x(12)(1)#26
      + 6 x(13)(1)#27 + 19 x(14)(1)#28 + 11 x(15)(1)#29 <= 35
 c3:  19 x(1)(2)#30 + 30 x(2)(2)#31 + 16 x(3)(2)#32 + 23 x(4)(2)#33
      + 11 x(5)(2)#34 + 31 x(6)(2)#35 + 15 x(7)(2)#36 + 28 x(8)(2)#37
      + 8 x(9)(2)#38 + 8 x(10)(2)#39 + 7 x(11)(2)#40 + 14 x(12)(2)#41
      + 6 x(13)(2)#42 + 19 x(14)(2)#43 + 11 x(15)(2)#44 <= 35
 c4:  19 x(1)(3)#45 + 30 x(2)(3)#46 + 16 x(3)(3)#47 + 23 x(4)(3)#48
      + 11 x(5)(3)#49 + 31 x(6)(3)#50 + 15 x(7)(3)#51 + 28 x(8)(3)#52
      + 8 x(9)(3)#53 + 8 x(10)(3)#54 + 7 x(11)(3)#55 + 14 x(12)(3)#56
      + 6 x(13)(3)#57 + 19 x(14)(3)#58 + 11 x(15)(3)#59 <= 35
 c5:  19 x(1)(4)#60 + 30 x(2)(4)#61 + 16 x(3)(4)#62 + 23 x(4)(4)#63
      + 11 x(5)(4)#64 + 31 x(6)(4)#65 + 15 x(7)(4)#66 + 28 x(8)(4)#67
      + 8 x(9)(4)#68 + 8 x(10)(4)#69 + 7 x(11)(4)#70 + 14 x(12)(4)#71
      + 6 x(13)(4)#72 + 19 x(14)(4)#73 + 11 x(15)(4)#74 <= 35
 c6:  19 x(1)(5)#75 + 30 x(2)(5)#76 + 16 x(3)(5)#77 + 23 x(4)(5)#78
      + 11 x(5)(5)#79 + 31 x(6)(5)#80 + 15 x(7)(5)#81 + 28 x(8)(5)#82
      + 8 x(9)(5)#83 + 8 x(10)(5)#84 + 7 x(11)(5)#85 + 14 x(12)(5)#86
      + 6 x(13)(5)#87 + 19 x(14)(5)#88 + 11 x(15)(5)#89 <= 35
 c7:  19 x(1)(6)#90 + 30 x(2)(6)#91 + 16 x(3)(6)#92 + 23 x(4)(6)#93
      + 11 x(5)(6)#94 + 31 x(6)(6)#95 + 15 x(7)(6)#96 + 28 x(8)(6)#97
      + 8 x(9)(6)#98 + 8 x(10)(6)#99 + 7 x(11)(6)#100 + 14 x(12)(6)#101
      + 6 x(13)(6)#102 + 19 x(14)(6)#103 + 11 x(15)(6)#104 <= 35
 c8:  19 x(1)(7)#105 + 30 x(2)(7)#106 + 16 x(3)(7)#107 + 23 x(4)(7)#108
      + 11 x(5)(7)#109 + 31 x(6)(7)#110 + 15 x(7)(7)#111 + 28 x(8)(7)#112
      + 8 x(9)(7)#113 + 8 x(10)(7)#114 + 7 x(11)(7)#115 + 14 x(12)(7)#116
      + 6 x(13)(7)#117 + 19 x(14)(7)#118 + 11 x(15)(7)#119 <= 35
 c9:  x(0)(0)#120 + x(0)(1)#121 + x(0)(2)#122 + x(0)(3)#123 + x(0)(4)#124
      + x(0)(5)#125 + x(0)(6)#126 + x(0)(7)#127  = 1
 c10: x(1)(0)#0 + x(1)(1)#15 + x(1)(2)#30 + x(1)(3)#45 + x(1)(4)#60
      + x(1)(5)#75 + x(1)(6)#90 + x(1)(7)#105  = 1
 c11: x(2)(0)#1 + x(2)(1)#16 + x(2)(2)#31 + x(2)(3)#46 + x(2)(4)#61
      + x(2)(5)#76 + x(2)(6)#91 + x(2)(7)#106  = 1
 c12: x(3)(0)#2 + x(3)(1)#17 + x(3)(2)#32 + x(3)(3)#47 + x(3)(4)#62
      + x(3)(5)#77 + x(3)(6)#92 + x(3)(7)#107  = 1
 c13: x(4)(0)#3 + x(4)(1)#18 + x(4)(2)#33 + x(4)(3)#48 + x(4)(4)#63
      + x(4)(5)#78 + x(4)(6)#93 + x(4)(7)#108  = 1
 c14: x(5)(0)#4 + x(5)(1)#19 + x(5)(2)#34 + x(5)(3)#49 + x(5)(4)#64
      + x(5)(5)#79 + x(5)(6)#94 + x(5)(7)#109  = 1
 c15: x(6)(0)#5 + x(6)(1)#20 + x(6)(2)#35 + x(6)(3)#50 + x(6)(4)#65
      + x(6)(5)#80 + x(6)(6)#95 + x(6)(7)#110  = 1
 c16: x(7)(0)#6 + x(7)(1)#21 + x(7)(2)#36 + x(7)(3)#51 + x(7)(4)#66
      + x(7)(5)#81 + x(7)(6)#96 + x(7)(7)#111  = 1
 c17: x(8)(0)#7 + x(8)(1)#22 + x(8)(2)#37 + x(8)(3)#52 + x(8)(4)#67
      + x(8)(5)#82 + x(8)(6)#97 + x(8)(7)#112  = 1
 c18: x(9)(0)#8 + x(9)(1)#23 + x(9)(2)#38 + x(9)(3)#53 + x(9)(4)#68
      + x(9)(5)#83 + x(9)(6)#98 + x(9)(7)#113  = 1
 c19: x(10)(0)#9 + x(10)(1)#24 + x(10)(2)#39 + x(10)(3)#54 + x(10)(4)#69
      + x(10)(5)#84 + x(10)(6)#99 + x(10)(7)#114  = 1
 c20: x(11)(0)#10 + x(11)(1)#25 + x(11)(2)#40 + x(11)(3)#55 + x(11)(4)#70
      + x(11)(5)#85 + x(11)(6)#100 + x(11)(7)#115  = 1
 c21: x(12)(0)#11 + x(12)(1)#26 + x(12)(2)#41 + x(12)(3)#56 + x(12)(4)#71
      + x(12)(5)#86 + x(12)(6)#101 + x(12)(7)#116  = 1
 c22: x(13)(0)#12 + x(13)(1)#27 + x(13)(2)#42 + x(13)(3)#57 + x(13)(4)#72
      + x(13)(5)#87 + x(13)(6)#102 + x(13)(7)#117  = 1
 c23: x(14)(0)#13 + x(14)(1)#28 + x(14)(2)#43 + x(14)(3)#58 + x(14)(4)#73
      + x(14)(5)#88 + x(14)(6)#103 + x(14)(7)#118  = 1
 c24: x(15)(0)#14 + x(15)(1)#29 + x(15)(2)#44 + x(15)(3)#59 + x(15)(4)#74
      + x(15)(5)#89 + x(15)(6)#104 + x(15)(7)#119  = 1
Bounds
 0 <= x(1)(0)#0 <= 1
 0 <= x(2)(0)#1 <= 1
 0 <= x(3)(0)#2 <= 1
 0 <= x(4)(0)#3 <= 1
 0 <= x(5)(0)#4 <= 1
 0 <= x(6)(0)#5 <= 1
 0 <= x(7)(0)#6 <= 1
 0 <= x(8)(0)#7 <= 1
 0 <= x(9)(0)#8 <= 1
 0 <= x(10)(0)#9 <= 1
 0 <= x(11)(0)#10 <= 1
 0 <= x(12)(0)#11 <= 1
 0 <= x(13)(0)#12 <= 1
 0 <= x(14)(0)#13 <= 1
 0 <= x(15)(0)#14 <= 1
 0 <= x(1)(1)#15 <= 1
 0 <= x(2)(1)#16 <= 1
 0 <= x(3)(1)#17 <= 1
 0 <= x(4)(1)#18 <= 1
 0 <= x(5)(1)#19 <= 1
 0 <= x(6)(1)#20 <= 1
 0 <= x(7)(1)#21 <= 1
 0 <= x(8)(1)#22 <= 1
 0 <= x(9)(1)#23 <= 1
 0 <= x(10)(1)#24 <= 1
 0 <= x(11)(1)#25 <= 1
 0 <= x(12)(1)#26 <= 1
 0 <= x(13)(1)#27 <= 1
 0 <= x(14)(1)#28 <= 1
 0 <= x(15)(1)#29 <= 1
 0 <= x(1)(2)#30 <= 1
 0 <= x(2)(2)#31 <= 1
 0 <= x(3)(2)#32 <= 1
 0 <= x(4)(2)#33 <= 1
 0 <= x(5)(2)#34 <= 1
 0 <= x(6)(2)#35 <= 1
 0 <= x(7)(2)#36 <= 1
 0 <= x(8)(2)#37 <= 1
 0 <= x(9)(2)#38 <= 1
 0 <= x(10)(2)#39 <= 1
 0 <= x(11)(2)#40 <= 1
 0 <= x(12)(2)#41 <= 1
 0 <= x(13)(2)#42 <= 1
 0 <= x(14)(2)#43 <= 1
 0 <= x(15)(2)#44 <= 1
 0 <= x(1)(3)#45 <= 1
 0 <= x(2)(3)#46 <= 1
 0 <= x(3)(3)#47 <= 1
 0 <= x(4)(3)#48 <= 1
 0 <= x(5)(3)#49 <= 1
 0 <= x(6)(3)#50 <= 1
 0 <= x(7)(3)#51 <= 1
 0 <= x(8)(3)#52 <= 1
 0 <= x(9)(3)#53 <= 1
 0 <= x(10)(3)#54 <= 1
 0 <= x(11)(3)#55 <= 1
 0 <= x(12)(3)#56 <= 1
 0 <= x(13)(3)#57 <= 1
 0 <= x(14)(3)#58 <= 1
 0 <= x(15)(3)#59 <= 1
 0 <= x(1)(4)#60 <= 1
 0 <= x(2)(4)#61 <= 1
 0 <= x(3)(4)#62 <= 1
 0 <= x(4)(4)#63 <= 1
 0 <= x(5)(4)#64 <= 1
 0 <= x(6)(4)#65 <= 1
 0 <= x(7)(4)#66 <= 1
 0 <= x(8)(4)#67 <= 1
 0 <= x(9)(4)#68 <= 1
 0 <= x(10)(4)#69 <= 1
 0 <= x(11)(4)#70 <= 1
 0 <= x(12)(4)#71 <= 1
 0 <= x(13)(4)#72 <= 1
 0 <= x(14)(4)#73 <= 1
 0 <= x(15)(4)#74 <= 1
 0 <= x(1)(5)#75 <= 1
 0 <= x(2)(5)#76 <= 1
 0 <= x(3)(5)#77 <= 1
 0 <= x(4)(5)#78 <= 1
 0 <= x(5)(5)#79 <= 1
 0 <= x(6)(5)#80 <= 1
 0 <= x(7)(5)#81 <= 1
 0 <= x(8)(5)#82 <= 1
 0 <= x(9)(5)#83 <= 1
 0 <= x(10)(5)#84 <= 1
 0 <= x(11)(5)#85 <= 1
 0 <= x(12)(5)#86 <= 1
 0 <= x(13)(5)#87 <= 1
 0 <= x(14)(5)#88 <= 1
 0 <= x(15)(5)#89 <= 1
 0 <= x(1)(6)#90 <= 1
 0 <= x(2)(6)#91 <= 1
 0 <= x(3)(6)#92 <= 1
 0 <= x(4)(6)#93 <= 1
 0 <= x(5)(6)#94 <= 1
 0 <= x(6)(6)#95 <= 1
 0 <= x(7)(6)#96 <= 1
 0 <= x(8)(6)#97 <= 1
 0 <= x(9)(6)#98 <= 1
 0 <= x(10)(6)#99 <= 1
 0 <= x(11)(6)#100 <= 1
 0 <= x(12)(6)#101 <= 1
 0 <= x(13)(6)#102 <= 1
 0 <= x(14)(6)#103 <= 1
 0 <= x(15)(6)#104 <= 1
 0 <= x(1)(7)#105 <= 1
 0 <= x(2)(7)#106 <= 1
 0 <= x(3)(7)#107 <= 1
 0 <= x(4)(7)#108 <= 1
 0 <= x(5)(7)#109 <= 1
 0 <= x(6)(7)#110 <= 1
 0 <= x(7)(7)#111 <= 1
 0 <= x(8)(7)#112 <= 1
 0 <= x(9)(7)#113 <= 1
 0 <= x(10)(7)#114 <= 1
 0 <= x(11)(7)#115 <= 1
 0 <= x(12)(7)#116 <= 1
 0 <= x(13)(7)#117 <= 1
 0 <= x(14)(7)#118 <= 1
 0 <= x(15)(7)#119 <= 1
 0 <= x(0)(0)#120 <= 1
 0 <= x(0)(1)#121 <= 1
 0 <= x(0)(2)#122 <= 1
 0 <= x(0)(3)#123 <= 1
 0 <= x(0)(4)#124 <= 1
 0 <= x(0)(5)#125 <= 1
 0 <= x(0)(6)#126 <= 1
 0 <= x(0)(7)#127 <= 1
Binaries
 x(1)(0)#0  x(2)(0)#1  x(3)(0)#2  x(4)(0)#3  x(5)(0)#4  x(6)(0)#5  x(7)(0)#6 
 x(8)(0)#7  x(9)(0)#8  x(10)(0)#9  x(11)(0)#10  x(12)(0)#11  x(13)(0)#12 
 x(14)(0)#13  x(15)(0)#14  x(1)(1)#15  x(2)(1)#16  x(3)(1)#17  x(4)(1)#18 
 x(5)(1)#19  x(6)(1)#20  x(7)(1)#21  x(8)(1)#22  x(9)(1)#23  x(10)(1)#24 
 x(11)(1)#25  x(12)(1)#26  x(13)(1)#27  x(14)(1)#28  x(15)(1)#29  x(1)(2)#30 
 x(2)(2)#31  x(3)(2)#32  x(4)(2)#33  x(5)(2)#34  x(6)(2)#35  x(7)(2)#36 
 x(8)(2)#37  x(9)(2)#38  x(10)(2)#39  x(11)(2)#40  x(12)(2)#41  x(13)(2)#42 
 x(14)(2)#43  x(15)(2)#44  x(1)(3)#45  x(2)(3)#46  x(3)(3)#47  x(4)(3)#48 
 x(5)(3)#49  x(6)(3)#50  x(7)(3)#51  x(8)(3)#52  x(9)(3)#53  x(10)(3)#54 
 x(11)(3)#55  x(12)(3)#56  x(13)(3)#57  x(14)(3)#58  x(15)(3)#59  x(1)(4)#60 
 x(2)(4)#61  x(3)(4)#62  x(4)(4)#63  x(5)(4)#64  x(6)(4)#65  x(7)(4)#66 
 x(8)(4)#67  x(9)(4)#68  x(10)(4)#69  x(11)(4)#70  x(12)(4)#71  x(13)(4)#72 
 x(14)(4)#73  x(15)(4)#74  x(1)(5)#75  x(2)(5)#76  x(3)(5)#77  x(4)(5)#78 
 x(5)(5)#79  x(6)(5)#80  x(7)(5)#81  x(8)(5)#82  x(9)(5)#83  x(10)(5)#84 
 x(11)(5)#85  x(12)(5)#86  x(13)(5)#87  x(14)(5)#88  x(15)(5)#89  x(1)(6)#90 
 x(2)(6)#91  x(3)(6)#92  x(4)(6)#93  x(5)(6)#94  x(6)(6)#95  x(7)(6)#96 
 x(8)(6)#97  x(9)(6)#98  x(10)(6)#99  x(11)(6)#100  x(12)(6)#101  x(13)(6)#102 
 x(14)(6)#103  x(15)(6)#104  x(1)(7)#105  x(2)(7)#106  x(3)(7)#107 
 x(4)(7)#108  x(5)(7)#109  x(6)(7)#110  x(7)(7)#111  x(8)(7)#112  x(9)(7)#113 
 x(10)(7)#114  x(11)(7)#115  x(12)(7)#116  x(13)(7)#117  x(14)(7)#118 
 x(15)(7)#119  x(0)(0)#120  x(0)(1)#121  x(0)(2)#122  x(0)(3)#123  x(0)(4)#124 
 x(0)(5)#125  x(0)(6)#126  x(0)(7)#127 
End
